134425
53,21,52,58,67,43,81,39,74,10,15,32,26,50,55,6,37,34,27,29,1,71,80,42,33,48,46,59,56,11,2,22,24,54,41,68,14,5,60,78,7,82,62,38,51,40,77,49,3,64,18,47,23,4,30,17,36,12,20,8,31,73,57,76,16,19,65,45,61,69,79,44,72,0,9,28,63,13,25,75,66,35,70